193
0 145 30 154 38 64 81 151 185 92 
189 170 86 70 112 36 139 50 4 179 
34 80 8 165 138 54 117 27 107 125 
56 29 102 99 57 143 45 58 160 46 
155 111 93 95 22 158 175 186 136 26 
67 55 20 51 121 168 25 24 173 9 
115 33 105 10 14 129 109 83 150 59 
89 191 124 19 144 5 47 78 13 152 
69 44 141 23 127 82 15 18 184 61 
162 106 140 71 96 108 176 97 135 42 
52 149 2 161 100 98 180 87 74 166 
110 174 181 128 188 182 31 119 126 39 
90 118 53 159 116 101 148 171 190 164 
75 49 91 68 134 28 133 62 63 60 
120 7 183 169 178 156 104 16 84 73 
114 3 187 132 12 17 76 157 21 79 
1 177 43 66 40 77 94 35 122 153 
41 123 167 11 146 147 32 85 88 172 
103 163 192 37 130 113 6 142 65 137 
131 48 72 
